3 87 
40 49 
69 8 
13 80 
91 90 
20 42 
82 70 
89 56 
37 0 
51 48 
22 55 
12 58 
28 15 
62 20 
20 89 
99 76 
76 39 
25 98 
47 91 
78 90 
81 50 
32 16 
21 21 
24 10 
74 76 
10 96 
83 22 
7 64 
90 21 
36 10 
10 35 
86 86 
74 64 
36 73 
55 15 
63 88 
17 48 
4 90 
21 29 
1 95 
57 63 
92 92 
86 99 
8 76 
20 45 
86 82 
80 25 
68 7 
89 57 
32 96 
